c Reduced graph for p29_0 generated by Cyril Grelier
p edge 45 202
e 1 9
e 1 11
e 1 19
e 1 20
e 1 25
e 1 34
e 1 37
e 1 40
e 1 42
e 1 44
e 2 3
e 2 6
e 2 8
e 2 10
e 2 14
e 2 16
e 2 18
e 2 19
e 2 26
e 2 29
e 2 32
e 2 33
e 2 38
e 2 42
e 3 4
e 3 5
e 3 6
e 3 8
e 3 9
e 3 10
e 3 14
e 3 16
e 3 18
e 3 27
e 3 33
e 3 42
e 4 5
e 4 9
e 4 23
e 4 27
e 4 38
e 5 9
e 5 27
e 6 8
e 6 10
e 6 14
e 6 16
e 6 18
e 6 24
e 6 33
e 6 39
e 6 42
e 7 11
e 7 12
e 7 13
e 7 15
e 7 17
e 7 18
e 7 26
e 7 35
e 8 10
e 8 14
e 8 16
e 8 18
e 8 22
e 8 33
e 8 42
e 8 44
e 9 11
e 9 19
e 9 25
e 9 27
e 9 40
e 9 44
e 10 14
e 10 16
e 10 18
e 10 21
e 10 25
e 10 30
e 10 33
e 10 42
e 11 15
e 11 17
e 11 18
e 11 19
e 11 25
e 11 40
e 11 44
e 12 13
e 12 14
e 12 26
e 12 35
e 12 36
e 12 45
e 13 26
e 13 28
e 13 33
e 13 35
e 13 41
e 14 16
e 14 18
e 14 33
e 14 36
e 14 42
e 14 45
e 15 17
e 15 18
e 15 31
e 15 32
e 16 18
e 16 23
e 16 31
e 16 33
e 16 35
e 16 40
e 16 42
e 16 43
e 17 18
e 17 21
e 17 28
e 17 34
e 17 39
e 17 43
e 18 33
e 18 42
e 19 25
e 19 26
e 19 29
e 19 32
e 19 38
e 19 40
e 19 44
e 20 22
e 20 24
e 20 30
e 20 34
e 20 36
e 20 37
e 20 41
e 20 42
e 21 25
e 21 28
e 21 30
e 21 34
e 21 39
e 21 43
e 22 24
e 22 30
e 22 36
e 22 41
e 22 44
e 23 31
e 23 35
e 23 38
e 23 40
e 23 43
e 24 30
e 24 36
e 24 39
e 24 41
e 25 30
e 25 40
e 25 44
e 26 29
e 26 32
e 26 35
e 26 38
e 27 29
e 27 37
e 27 45
e 28 33
e 28 34
e 28 39
e 28 41
e 28 43
e 29 32
e 29 37
e 29 38
e 29 45
e 30 36
e 30 41
e 31 32
e 31 35
e 31 40
e 31 43
e 32 38
e 33 41
e 33 42
e 34 37
e 34 39
e 34 42
e 34 43
e 35 40
e 35 43
e 36 41
e 36 45
e 37 42
e 37 45
e 39 43
e 40 43
e 40 44
